/* 177 */

/* Objective function */
min: +C3;

/* Constraints */
+1.5 C1 +2.4 C2 -C3 <= -0.09;
+3.5 C1 +2.67 C2 -C3 <= -0.09;
-4166666666.7 C2 -C3 <= -0.09;
-6666666670.57 C1 +2.4 C2 -C3 <= -0.09;
R5: -C3 <= -0.09;
R6: -C3 <= -0.09;
R7: -C3 <= -0.09;
R8: -C3 <= -0.09;
R9: -C3 <= -0.09;
R10: -C3 <= -0.09;
R11: -C3 <= -0.09;
R12: -C3 <= -0.09;
R13: -C3 <= -0.09;
R14: -C3 <= -0.09;
R15: -C3 <= -0.09;
R16: -C3 <= -0.09;
R17: -C3 <= -0.09;
R18: -C3 <= -0.09;
R19: -C3 <= -0.09;
R20: -C3 <= -0.09;
R21: -C3 <= -0.09;
R22: -C3 <= -0.09;
R23: -C3 <= -0.09;
R24: -C3 <= -0.09;
R25: -C3 <= -0.09;
R26: -C3 <= -0.09;
R27: -C3 <= -0.09;
R28: -C3 <= -0.09;
R29: -C3 <= -0.09;
R30: -C3 <= -0.09;
R31: -C3 <= -0.09;
R32: -C3 <= -0.09;
R33: -C3 <= -0.09;
R34: -C3 <= -0.09;
R35: -C3 <= -0.09;
R36: -C3 <= -0.09;
R37: -C3 <= -0.09;
R38: -C3 <= -0.09;
R39: -C3 <= -0.09;
R40: -C3 <= -0.09;
R41: -C3 <= -0.09;
R42: -C3 <= -0.09;
R43: -C3 <= -0.09;
R44: -C3 <= -0.09;
R45: -C3 <= -0.09;
R46: -C3 <= -0.09;
R47: -C3 <= -0.09;
R48: -C3 <= -0.09;
R49: -C3 <= -0.09;
R50: -C3 <= -0.09;
R51: -C3 <= -0.09;
R52: -C3 <= -0.09;
R53: -C3 <= -0.09;
R54: -C3 <= -0.09;
R55: -C3 <= -0.09;
R56: -C3 <= -0.09;
R57: -C3 <= -0.09;
R58: -C3 <= -0.09;
R59: -C3 <= -0.09;
R60: -C3 <= -0.09;
R61: -C3 <= -0.09;
R62: -C3 <= -0.09;
R63: -C3 <= -0.09;
R64: -C3 <= -0.09;
R65: -C3 <= -0.09;
R66: -C3 <= -0.09;
R67: -C3 <= -0.09;
R68: -C3 <= -0.09;
R69: -C3 <= -0.09;
R70: -C3 <= -0.09;
R71: -C3 <= -0.09;
R72: -C3 <= -0.09;
R73: -C3 <= -0.09;
R74: -C3 <= -0.09;
R75: -C3 <= -0.09;
R76: -C3 <= -0.09;
R77: -C3 <= -0.09;
R78: -C3 <= -0.09;
R79: -C3 <= -0.09;
R80: -C3 <= -0.09;
R81: -C3 <= -0.09;
R82: -C3 <= -0.09;
R83: -C3 <= -0.09;
R84: -C3 <= -0.09;
R85: -C3 <= -0.09;
R86: -C3 <= -0.09;
R87: -C3 <= -0.09;
R88: -C3 <= -0.09;
R89: -C3 <= -0.09;
R90: -C3 <= -0.09;
R91: -C3 <= -0.09;
R92: -C3 <= -0.09;
R93: -C3 <= -0.09;
R94: -C3 <= -0.09;
R95: -C3 <= -0.09;
R96: -C3 <= -0.09;
R97: -C3 <= -0.09;
R98: -C3 <= -0.09;
R99: -C3 <= -0.09;
R100: -C3 <= -0.09;
R101: -C3 <= -0.09;
R102: -C3 <= -0.09;
R103: -C3 <= -0.09;
R104: -C3 <= -0.09;
R105: -C3 <= -0.09;
R106: -C3 <= -0.09;
R107: -C3 <= -0.09;
R108: -C3 <= -0.09;
R109: -C3 <= -0.09;
R110: -C3 <= -0.09;
R111: -C3 <= -0.09;
R112: -C3 <= -0.09;
R113: -C3 <= -0.09;
R114: -C3 <= -0.09;
R115: -C3 <= -0.09;
R116: -C3 <= -0.09;
R117: -C3 <= -0.09;
R118: -C3 <= -0.09;
R119: -C3 <= -0.09;
R120: -C3 <= -0.09;
R121: -C3 <= -0.09;
R122: -C3 <= -0.09;
R123: -C3 <= -0.09;
R124: -C3 <= -0.09;
R125: -C3 <= -0.09;
R126: -C3 <= -0.09;
R127: -C3 <= -0.09;
R128: -C3 <= -0.09;
R129: -C3 <= -0.09;
R130: -C3 <= -0.09;
R131: -C3 <= -0.09;
R132: -C3 <= -0.09;
R133: -C3 <= -0.09;
R134: -C3 <= -0.09;
R135: -C3 <= -0.09;
R136: -C3 <= -0.09;
R137: -C3 <= -0.09;
R138: -C3 <= -0.09;
R139: -C3 <= -0.09;
R140: -C3 <= -0.09;
R141: -C3 <= -0.09;
R142: -C3 <= -0.09;
R143: -C3 <= -0.09;
R144: -C3 <= -0.09;
R145: -C3 <= -0.09;
R146: -C3 <= -0.09;
R147: -C3 <= -0.09;
R148: -C3 <= -0.09;
R149: -C3 <= -0.09;
R150: -C3 <= -0.09;
R151: -C3 <= -0.09;
R152: -C3 <= -0.09;
R153: -C3 <= -0.09;
R154: -C3 <= -0.09;
R155: -C3 <= -0.09;
R156: -C3 <= -0.09;
R157: -C3 <= -0.09;
R158: -C3 <= -0.09;
R159: -C3 <= -0.09;
R160: -C3 <= -0.09;
R161: -C3 <= -0.09;
R162: -C3 <= -0.09;
R163: -C3 <= -0.09;
R164: -C3 <= -0.09;
R165: -C3 <= -0.09;
R166: -C3 <= -0.09;
R167: -C3 <= -0.09;
R168: -C3 <= -0.09;
R169: -C3 <= -0.09;
R170: -C3 <= -0.09;
R171: -C3 <= -0.09;
R172: -C3 <= -0.09;
R173: -C3 <= -0.09;
R174: -C3 <= -0.09;
R175: -C3 <= -0.09;
R176: -C3 <= -0.09;
R177: -C3 <= -0.09;
R178: -C3 <= -0.09;
R179: -C3 <= -0.09;

/* Variable bounds */
C1 >= -10000000000;
C2 >= -10000000000;
C3 >= -10000000000;
